23096 
# 45 - 42 - 2 - 13 - 70 - 40 - 99 - 47 - 51 - 77 - 95 - 4 - 36 - 32 - 75 - 12 - 94 - 81 - 1 - 43 - 49 - 72 - 67 - 84 - 38 - 29 - 28 - 33 - 82 - 54 - 6 - 8 - 56 - 86 - 50 - 24 - 80 - 68 - 63 - 39 - 53 - 60 - 57 - 92 - 27 - 66 - 41 - 88 - 30 - 79 - 55 - 96 - 3 - 64 - 25 - 65 - 69 - 21 - 15 - 87 - 93 - 17 - 78 - 52 - 18 - 74 - 7 - 91 - 0 - 62 - 5 - 48 - 89 - 9 - 83 - 23 - 37 - 98 - 35 - 71 - 20 - 73 - 58 - 16 - 14 - 10 - 31 - 46 - 90 - 44 - 97 - 22 - 76 - 59 - 61 - 34 - 85 - 26 - 19 - 11 - 
